Route #1: 49 14 3 108 38 5 91
Route #2: 109 18 77 45 89 46 6
Route #3: 69 30 25 103 51 67 34 106 105 32
Route #4: 79 97 85 24 56 55 2 80 71
Route #5: 76 4 84 11 42 92 90 1
Route #6: 16 74 20 98 15 53 101 102 83
Route #7: 70 29 66 26 9 33 22 61
Route #8: 13 23 44 81 78 87 60 104
Route #9: 93 43 47 48 82 107 57
Route #10: 99 65 10 86 73 7 40 8
Route #11: 62 94 37 35 63 17 27 36 64
Route #12: 100 72 95 59 31 28 39 50
Route #13: 52 68 54 96 88 41 12 58 19
Route #14: 21 75
Cost 25071
